///////////////////////////////////////
//
//     Problema da dieta
//
///////////////////////////////////////


/* Função objectivo  */
min: 0.10 x1 + 0.06 x2 +0.04 x3;

/* Restrições */

4 x1 + 8 x2 + 4 x3 >= 10;
2 x1 + 4 x2 + 4 x3 >=  6;
3 x1 + 2 x2 + 4 x3 >=  4;

